c nIsolatedPIs 192
c maxPI 64
p cnf 194 391
c gate 65 2 34 0
2 -65 0
34 -65 0
-2 -34 65 0
c gate 66 1 33 0
1 -66 0
33 -66 0
-1 -33 66 0
c gate 67 -65 -66 0
-65 -67 0
-66 -67 0
65 66 67 0
c gate 68 -3 -35 0
-3 -68 0
-35 -68 0
3 35 68 0
c gate 69 -2 -34 0
-2 -69 0
-34 -69 0
2 34 69 0
c gate 70 -68 -69 0
-68 -70 0
-69 -70 0
68 69 70 0
c gate 71 -67 70 0
-67 -71 0
70 -71 0
67 -70 71 0
c gate 72 4 36 0
4 -72 0
36 -72 0
-4 -36 72 0
c gate 73 3 35 0
3 -73 0
35 -73 0
-3 -35 73 0
c gate 74 -72 -73 0
-72 -74 0
-73 -74 0
72 73 74 0
c gate 75 -71 74 0
-71 -75 0
74 -75 0
71 -74 75 0
c gate 76 -4 -36 0
-4 -76 0
-36 -76 0
4 36 76 0
c gate 77 -5 -37 0
-5 -77 0
-37 -77 0
5 37 77 0
c gate 78 -76 -77 0
-76 -78 0
-77 -78 0
76 77 78 0
c gate 79 -75 78 0
-75 -79 0
78 -79 0
75 -78 79 0
c gate 80 6 38 0
6 -80 0
38 -80 0
-6 -38 80 0
c gate 81 5 37 0
5 -81 0
37 -81 0
-5 -37 81 0
c gate 82 -80 -81 0
-80 -82 0
-81 -82 0
80 81 82 0
c gate 83 -79 82 0
-79 -83 0
82 -83 0
79 -82 83 0
c gate 84 -7 -39 0
-7 -84 0
-39 -84 0
7 39 84 0
c gate 85 -6 -38 0
-6 -85 0
-38 -85 0
6 38 85 0
c gate 86 -84 -85 0
-84 -86 0
-85 -86 0
84 85 86 0
c gate 87 -83 86 0
-83 -87 0
86 -87 0
83 -86 87 0
c gate 88 8 40 0
8 -88 0
40 -88 0
-8 -40 88 0
c gate 89 7 39 0
7 -89 0
39 -89 0
-7 -39 89 0
c gate 90 -88 -89 0
-88 -90 0
-89 -90 0
88 89 90 0
c gate 91 -87 90 0
-87 -91 0
90 -91 0
87 -90 91 0
c gate 92 -9 -41 0
-9 -92 0
-41 -92 0
9 41 92 0
c gate 93 -8 -40 0
-8 -93 0
-40 -93 0
8 40 93 0
c gate 94 -92 -93 0
-92 -94 0
-93 -94 0
92 93 94 0
c gate 95 -91 94 0
-91 -95 0
94 -95 0
91 -94 95 0
c gate 96 10 42 0
10 -96 0
42 -96 0
-10 -42 96 0
c gate 97 9 41 0
9 -97 0
41 -97 0
-9 -41 97 0
c gate 98 -96 -97 0
-96 -98 0
-97 -98 0
96 97 98 0
c gate 99 -95 98 0
-95 -99 0
98 -99 0
95 -98 99 0
c gate 100 -10 -42 0
-10 -100 0
-42 -100 0
10 42 100 0
c gate 101 -12 -44 0
-12 -101 0
-44 -101 0
12 44 101 0
c gate 102 -11 -43 0
-11 -102 0
-43 -102 0
11 43 102 0
c gate 103 -101 -102 0
-101 -103 0
-102 -103 0
101 102 103 0
c gate 104 -100 103 0
-100 -104 0
103 -104 0
100 -103 104 0
c gate 105 -99 104 0
-99 -105 0
104 -105 0
99 -104 105 0
c gate 106 12 44 0
12 -106 0
44 -106 0
-12 -44 106 0
c gate 107 11 43 0
11 -107 0
43 -107 0
-11 -43 107 0
c gate 108 -101 107 0
-101 -108 0
107 -108 0
101 -107 108 0
c gate 109 -106 -108 0
-106 -109 0
-108 -109 0
106 108 109 0
c gate 110 -105 109 0
-105 -110 0
109 -110 0
105 -109 110 0
c gate 111 -14 -46 0
-14 -111 0
-46 -111 0
14 46 111 0
c gate 112 -15 -47 0
-15 -112 0
-47 -112 0
15 47 112 0
c gate 113 -111 -112 0
-111 -113 0
-112 -113 0
111 112 113 0
c gate 114 14 46 0
14 -114 0
46 -114 0
-14 -46 114 0
c gate 115 13 45 0
13 -115 0
45 -115 0
-13 -45 115 0
c gate 116 -114 -115 0
-114 -116 0
-115 -116 0
114 115 116 0
c gate 117 -13 -45 0
-13 -117 0
-45 -117 0
13 45 117 0
c gate 118 116 -117 0
116 -118 0
-117 -118 0
-116 117 118 0
c gate 119 113 118 0
113 -119 0
118 -119 0
-113 -118 119 0
c gate 120 -110 119 0
-110 -120 0
119 -120 0
110 -119 120 0
c gate 121 113 -116 0
113 -121 0
-116 -121 0
-113 116 121 0
c gate 122 15 47 0
15 -122 0
47 -122 0
-15 -47 122 0
c gate 123 16 48 0
16 -123 0
48 -123 0
-16 -48 123 0
c gate 124 -122 -123 0
-122 -124 0
-123 -124 0
122 123 124 0
c gate 125 -121 124 0
-121 -125 0
124 -125 0
121 -124 125 0
c gate 126 -120 125 0
-120 -126 0
125 -126 0
120 -125 126 0
c gate 127 -20 -52 0
-20 -127 0
-52 -127 0
20 52 127 0
c gate 128 19 -127 0
19 -128 0
-127 -128 0
-19 127 128 0
c gate 129 51 -127 0
51 -129 0
-127 -129 0
-51 127 129 0
c gate 130 -128 -129 0
-128 -130 0
-129 -130 0
128 129 130 0
c gate 131 28 60 0
28 -131 0
60 -131 0
-28 -60 131 0
c gate 132 -28 -60 0
-28 -132 0
-60 -132 0
28 60 132 0
c gate 133 27 59 0
27 -133 0
59 -133 0
-27 -59 133 0
c gate 134 -132 133 0
-132 -134 0
133 -134 0
132 -133 134 0
c gate 135 -131 -134 0
-131 -135 0
-134 -135 0
131 134 135 0
c gate 136 -27 -59 0
-27 -136 0
-59 -136 0
27 59 136 0
c gate 137 -26 -58 0
-26 -137 0
-58 -137 0
26 58 137 0
c gate 138 -132 -137 0
-132 -138 0
-137 -138 0
132 137 138 0
c gate 139 -136 138 0
-136 -139 0
138 -139 0
136 -138 139 0
c gate 140 135 139 0
135 -140 0
139 -140 0
-135 -139 140 0
c gate 141 -130 140 0
-130 -141 0
140 -141 0
130 -140 141 0
c gate 142 -23 -55 0
-23 -142 0
-55 -142 0
23 55 142 0
c gate 143 -22 -54 0
-22 -143 0
-54 -143 0
22 54 143 0
c gate 144 -142 -143 0
-142 -144 0
-143 -144 0
142 143 144 0
c gate 145 24 56 0
24 -145 0
56 -145 0
-24 -56 145 0
c gate 146 23 55 0
23 -146 0
55 -146 0
-23 -55 146 0
c gate 147 -145 -146 0
-145 -147 0
-146 -147 0
145 146 147 0
c gate 148 144 147 0
144 -148 0
147 -148 0
-144 -147 148 0
c gate 149 22 54 0
22 -149 0
54 -149 0
-22 -54 149 0
c gate 150 21 53 0
21 -150 0
53 -150 0
-21 -53 150 0
c gate 151 -149 -150 0
-149 -151 0
-150 -151 0
149 150 151 0
c gate 152 -25 -57 0
-25 -152 0
-57 -152 0
25 57 152 0
c gate 153 -24 -56 0
-24 -153 0
-56 -153 0
24 56 153 0
c gate 154 -152 -153 0
-152 -154 0
-153 -154 0
152 153 154 0
c gate 155 151 154 0
151 -155 0
154 -155 0
-151 -154 155 0
c gate 156 148 155 0
148 -156 0
155 -156 0
-148 -155 156 0
c gate 157 -16 -48 0
-16 -157 0
-48 -157 0
16 48 157 0
c gate 158 -18 -50 0
-18 -158 0
-50 -158 0
18 50 158 0
c gate 159 -157 -158 0
-157 -159 0
-158 -159 0
157 158 159 0
c gate 160 -17 -49 0
-17 -160 0
-49 -160 0
17 49 160 0
c gate 161 -21 -53 0
-21 -161 0
-53 -161 0
21 53 161 0
c gate 162 -160 -161 0
-160 -162 0
-161 -162 0
160 161 162 0
c gate 163 159 162 0
159 -163 0
162 -163 0
-159 -162 163 0
c gate 164 17 49 0
17 -164 0
49 -164 0
-17 -49 164 0
c gate 165 18 50 0
18 -165 0
50 -165 0
-18 -50 165 0
c gate 166 -164 -165 0
-164 -166 0
-165 -166 0
164 165 166 0
c gate 167 25 57 0
25 -167 0
57 -167 0
-25 -57 167 0
c gate 168 26 58 0
26 -168 0
58 -168 0
-26 -58 168 0
c gate 169 -167 -168 0
-167 -169 0
-168 -169 0
167 168 169 0
c gate 170 166 169 0
166 -170 0
169 -170 0
-166 -169 170 0
c gate 171 163 170 0
163 -171 0
170 -171 0
-163 -170 171 0
c gate 172 156 171 0
156 -172 0
171 -172 0
-156 -171 172 0
c gate 173 30 62 0
30 -173 0
62 -173 0
-30 -62 173 0
c gate 174 29 61 0
29 -174 0
61 -174 0
-29 -61 174 0
c gate 175 -173 -174 0
-173 -175 0
-174 -175 0
173 174 175 0
c gate 176 -29 -61 0
-29 -176 0
-61 -176 0
29 61 176 0
c gate 177 -32 -64 0
-32 -177 0
-64 -177 0
32 64 177 0
c gate 178 -176 -177 0
-176 -178 0
-177 -178 0
176 177 178 0
c gate 179 175 178 0
175 -179 0
178 -179 0
-175 -178 179 0
c gate 180 -31 -63 0
-31 -180 0
-63 -180 0
31 63 180 0
c gate 181 -30 -62 0
-30 -181 0
-62 -181 0
30 62 181 0
c gate 182 -180 -181 0
-180 -182 0
-181 -182 0
180 181 182 0
c gate 183 32 64 0
32 -183 0
64 -183 0
-32 -64 183 0
c gate 184 31 63 0
31 -184 0
63 -184 0
-31 -63 184 0
c gate 185 -183 -184 0
-183 -185 0
-184 -185 0
183 184 185 0
c gate 186 182 185 0
182 -186 0
185 -186 0
-182 -185 186 0
c gate 187 179 186 0
179 -187 0
186 -187 0
-179 -186 187 0
c gate 188 20 52 0
20 -188 0
52 -188 0
-20 -52 188 0
c gate 189 51 128 0
51 -189 0
128 -189 0
-51 -128 189 0
c gate 190 -188 -189 0
-188 -190 0
-189 -190 0
188 189 190 0
c gate 191 187 190 0
187 -191 0
190 -191 0
-187 -190 191 0
c gate 192 172 191 0
172 -192 0
191 -192 0
-172 -191 192 0
c gate 193 141 192 0
141 -193 0
192 -193 0
-141 -192 193 0
c gate 194 -126 193 0
-126 -194 0
193 -194 0
126 -193 194 0
c PO
194 0
